DIMACS2
20 206 69 131 172 170 167 5 16 290 178 270 292 265 241 229 234 153 88 223 249
p edge 320 2223
e 0 227 1.0
e 0 233 1.0
e 0 197 1.0
e 0 118 1.0
e 0 312 1.0
e 1 295 1.0
e 1 32 1.0
e 1 194 2.0
e 2 10 1.0
e 2 286 1.0
e 2 48 2.0
e 3 314 1.0
e 3 0 2.0
e 4 3 1.0
e 5 229 35.0
e 5 68 13.0
e 5 209 32.0
e 5 7 47.0
e 5 22 8.0
e 5 247 42.0
e 5 269 9.0
e 5 52 40.0
e 5 208 44.0
e 5 312 32.0
e 5 23 13.0
e 5 157 7.0
e 5 240 16.0
e 5 262 14.0
e 5 59 20.0
e 5 149 14.0
e 5 228 34.0
e 5 91 20.0
e 5 112 7.0
e 5 57 43.0
e 5 270 39.0
e 5 66 28.0
e 5 136 13.0
e 5 44 37.0
e 5 110 10.0
e 5 113 46.0
e 5 316 11.0
e 5 126 4.0
e 5 245 2.0
e 5 49 43.0
e 5 237 21.0
e 5 294 31.0
e 5 116 44.0
e 5 185 15.0
e 5 243 36.0
e 5 33 6.0
e 5 86 23.0
e 5 19 19.0
e 5 85 6.0
e 5 180 36.0
e 5 305 19.0
e 5 297 27.0
e 5 177 28.0
e 5 248 9.0
e 5 31 24.0
e 5 101 36.0
e 5 102 9.0
e 5 87 47.0
e 5 133 27.0
e 5 181 35.0
e 5 46 48.0
e 5 93 40.0
e 5 314 27.0
e 5 212 1.0
e 5 275 44.0
e 5 231 42.0
e 5 179 49.0
e 5 75 8.0
e 5 130 13.0
e 5 313 24.0
e 5 129 42.0
e 5 145 30.0
e 5 79 2.0
e 5 92 9.0
e 5 137 29.0
e 5 175 43.0
e 5 214 2.0
e 5 249 13.0
e 5 73 1.0
e 5 35 42.0
e 5 15 32.0
e 5 168 25.0
e 5 140 13.0
e 5 131 35.0
e 5 232 22.0
e 5 121 35.0
e 5 293 40.0
e 5 98 40.0
e 5 56 39.0
e 5 36 12.0
e 6 85 1.0
e 6 232 2.0
e 6 29 1.0
e 6 300 2.0
e 6 49 1.0
e 7 212 1.0
e 7 84 2.0
e 8 208 1.0
e 8 44 1.0
e 8 106 1.0
e 8 197 2.0
e 8 317 1.0
e 9 131 20.0
e 10 287 2.0
e 11 186 1.0
e 11 202 1.0
e 12 9 1.0
e 12 304 1.0
e 12 172 29.0
e 13 228 10.0
e 13 170 25.0
e 13 68 8.0
e 14 311 2.0
e 14 109 1.0
e 14 295 2.0
e 15 155 1.0
e 15 293 1.0
e 15 215 1.0
e 15 151 2.0
e 15 256 2.0
e 16 9 21.0
e 16 63 38.0
e 16 266 5.0
e 16 223 37.0
e 16 80 8.0
e 16 279 41.0
e 16 137 2.0
e 16 3 22.0
e 16 270 25.0
e 16 226 27.0
e 16 210 31.0
e 16 24 16.0
e 16 193 12.0
e 16 206 6.0
e 16 273 21.0
e 16 268 32.0
e 16 189 49.0
e 16 225 49.0
e 16 260 15.0
e 16 282 17.0
e 16 71 49.0
e 16 32 26.0
e 16 227 16.0
e 16 88 40.0
e 16 10 49.0
e 16 314 33.0
e 16 194 12.0
e 16 306 43.0
e 16 176 49.0
e 16 257 19.0
e 16 23 39.0
e 16 68 9.0
e 16 35 27.0
e 16 274 41.0
e 16 72 42.0
e 16 82 28.0
e 16 153 34.0
e 16 178 32.0
e 16 228 16.0
e 16 229 40.0
e 16 222 8.0
e 16 198 9.0
e 16 309 32.0
e 16 50 47.0
e 16 112 12.0
e 16 132 46.0
e 16 291 5.0
e 16 134 7.0
e 16 271 40.0
e 16 232 29.0
e 16 49 3.0
e 16 302 4.0
e 16 299 43.0
e 16 275 26.0
e 16 76 10.0
e 16 203 36.0
e 16 177 34.0
e 16 190 13.0
e 16 36 17.0
e 16 39 39.0
e 16 94 16.0
e 16 207 46.0
e 16 45 25.0
e 16 53 36.0
e 16 180 38.0
e 16 142 43.0
e 16 303 23.0
e 16 243 38.0
e 16 300 30.0
e 16 12 29.0
e 16 156 6.0
e 16 254 46.0
e 16 60 19.0
e 16 14 7.0
e 16 113 36.0
e 16 292 40.0
e 16 208 11.0
e 16 157 6.0
e 16 238 12.0
e 16 200 31.0
e 16 42 5.0
e 17 113 2.0
e 17 3 1.0
e 18 158 1.0
e 18 318 2.0
e 19 210 2.0
e 20 318 1.0
e 20 136 1.0
e 21 206 29.0
e 21 318 1.0
e 21 315 1.0
e 21 221 2.0
e 21 298 1.0
e 21 140 2.0
e 22 104 3.0
e 22 88 21.0
e 22 183 1.0
e 22 124 3.0
e 22 154 3.0
e 22 245 2.0
e 22 283 3.0
e 22 276 3.0
e 22 10 1.0
e 22 67 3.0
e 23 75 2.0
e 24 19 1.0
e 24 46 2.0
e 24 44 3.0
e 24 80 2.0
e 25 197 1.0
e 26 206 31.0
e 26 263 2.0
e 26 240 2.0
e 26 75 2.0
e 26 302 1.0
e 26 205 4.0
e 27 160 2.0
e 27 193 1.0
e 27 218 1.0
e 27 309 1.0
e 28 305 1.0
e 28 281 2.0
e 28 296 2.0
e 28 227 1.0
e 28 36 4.0
e 28 185 1.0
e 29 80 1.0
e 29 297 1.0
e 30 291 2.0
e 30 219 3.0
e 30 273 2.0
e 30 52 1.0
e 31 159 4.0
e 31 107 6.0
e 31 131 20.0
e 31 51 2.0
e 31 134 2.0
e 31 7 4.0
e 31 170 46.0
e 31 315 5.0
e 31 14 1.0
e 31 245 3.0
e 32 61 1.0
e 33 298 1.0
e 33 28 1.0
e 34 46 1.0
e 35 170 2.0
e 35 307 1.0
e 35 301 7.0
e 35 140 4.0
e 35 161 5.0
e 35 51 11.0
e 35 38 11.0
e 35 152 2.0
e 35 90 10.0
e 35 27 6.0
e 35 126 1.0
e 35 75 1.0
e 35 262 7.0
e 35 9 4.0
e 35 112 1.0
e 35 2 5.0
e 35 53 1.0
e 35 113 5.0
e 35 72 5.0
e 36 292 42.0
e 36 95 3.0
e 36 308 6.0
e 36 135 1.0
e 36 119 3.0
e 37 108 1.0
e 38 10 2.0
e 38 85 1.0
e 38 41 1.0
e 38 7 1.0
e 38 49 2.0
e 39 286 2.0
e 40 96 1.0
e 40 303 1.0
e 40 271 2.0
e 40 128 2.0
e 40 217 1.0
e 41 153 44.0
e 41 239 1.0
e 41 215 2.0
e 41 270 19.0
e 41 116 1.0
e 42 102 2.0
e 42 152 1.0
e 42 299 1.0
e 42 151 1.0
e 43 96 1.0
e 43 210 2.0
e 43 104 1.0
e 44 241 44.0
e 44 85 1.0
e 44 38 3.0
e 44 311 2.0
e 44 108 3.0
e 44 80 5.0
e 44 41 4.0
e 44 268 2.0
e 45 170 16.0
e 45 279 1.0
e 45 293 1.0
e 45 304 1.0
e 46 262 1.0
e 47 277 1.0
e 47 22 4.0
e 47 142 1.0
e 48 316 3.0
e 48 84 1.0
e 48 318 1.0
e 48 147 2.0
e 48 240 1.0
e 49 64 1.0
e 50 294 2.0
e 50 5 2.0
e 50 30 1.0
e 50 98 1.0
e 50 236 2.0
e 51 58 1.0
e 51 11 1.0
e 51 300 1.0
e 52 285 1.0
e 53 199 1.0
e 54 89 1.0
e 54 8 1.0
e 54 179 1.0
e 55 96 1.0
e 55 210 2.0
e 55 31 1.0
e 56 294 1.0
e 56 20 1.0
e 56 299 1.0
e 57 73 1.0
e 58 6 1.0
e 59 179 2.0
e 59 138 1.0
e 60 303 1.0
e 60 125 2.0
e 60 101 1.0
e 60 175 2.0
e 61 87 1.0
e 61 88 41.0
e 62 71 1.0
e 62 240 1.0
e 63 214 2.0
e 63 180 1.0
e 63 210 1.0
e 63 234 3.0
e 64 115 1.0
e 65 197 1.0
e 66 145 6.0
e 66 24 6.0
e 66 282 11.0
e 66 144 3.0
e 66 126 4.0
e 66 312 5.0
e 66 45 7.0
e 66 207 1.0
e 66 124 7.0
e 66 122 9.0
e 66 252 12.0
e 66 273 2.0
e 66 0 1.0
e 66 269 1.0
e 66 193 11.0
e 66 55 9.0
e 66 272 8.0
e 66 131 45.0
e 67 207 2.0
e 68 282 7.0
e 68 281 7.0
e 68 114 9.0
e 68 306 2.0
e 68 115 6.0
e 68 123 5.0
e 68 93 4.0
e 68 177 1.0
e 68 210 9.0
e 68 96 9.0
e 68 176 1.0
e 68 12 3.0
e 68 94 9.0
e 68 118 7.0
e 68 295 4.0
e 68 217 5.0
e 68 259 1.0
e 69 66 39.0
e 69 155 4.0
e 69 217 19.0
e 69 47 28.0
e 69 279 8.0
e 69 0 2.0
e 69 235 7.0
e 69 192 31.0
e 69 203 43.0
e 69 259 9.0
e 69 94 36.0
e 69 194 12.0
e 69 223 6.0
e 69 227 43.0
e 69 290 7.0
e 69 183 25.0
e 69 262 44.0
e 69 245 45.0
e 69 80 10.0
e 69 123 9.0
e 69 224 13.0
e 69 211 36.0
e 69 88 12.0
e 69 54 23.0
e 69 46 18.0
e 69 193 34.0
e 69 134 13.0
e 69 67 11.0
e 69 135 49.0
e 69 294 3.0
e 69 289 31.0
e 69 283 39.0
e 69 105 5.0
e 69 291 23.0
e 69 228 4.0
e 69 226 10.0
e 69 236 27.0
e 69 191 6.0
e 69 55 30.0
e 69 158 13.0
e 69 68 18.0
e 69 124 49.0
e 69 215 4.0
e 69 136 10.0
e 69 151 46.0
e 69 58 28.0
e 69 260 12.0
e 69 77 14.0
e 69 157 29.0
e 69 78 42.0
e 69 74 43.0
e 69 284 41.0
e 69 39 12.0
e 69 195 23.0
e 69 119 21.0
e 69 137 37.0
e 69 14 8.0
e 69 152 44.0
e 69 91 6.0
e 69 229 47.0
e 69 4 16.0
e 69 312 7.0
e 69 176 29.0
e 69 2 48.0
e 69 254 29.0
e 69 142 6.0
e 69 147 42.0
e 69 48 38.0
e 69 255 44.0
e 69 59 3.0
e 69 28 27.0
e 69 79 29.0
e 69 16 37.0
e 69 12 11.0
e 69 280 43.0
e 69 111 4.0
e 69 133 33.0
e 69 60 41.0
e 69 230 43.0
e 69 106 11.0
e 69 302 16.0
e 70 287 1.0
e 70 52 1.0
e 70 259 1.0
e 71 178 44.0
e 71 144 1.0
e 71 152 1.0
e 72 293 1.0
e 73 242 1.0
e 74 117 1.0
e 74 127 1.0
e 75 103 1.0
e 76 135 1.0
e 77 282 1.0
e 78 221 1.0
e 78 169 1.0
e 79 127 1.0
e 80 91 1.0
e 81 232 1.0
e 81 308 1.0
e 81 316 2.0
e 82 129 2.0
e 82 244 1.0
e 83 178 43.0
e 83 276 2.0
e 83 237 2.0
e 83 304 2.0
e 84 302 1.0
e 84 110 2.0
e 85 256 1.0
e 86 281 2.0
e 86 39 1.0
e 87 212 1.0
e 88 141 41.0
e 88 316 45.0
e 88 213 14.0
e 88 245 9.0
e 88 11 40.0
e 88 308 38.0
e 88 300 18.0
e 88 80 46.0
e 88 246 39.0
e 88 174 12.0
e 88 48 39.0
e 88 111 6.0
e 88 249 11.0
e 88 106 37.0
e 88 57 48.0
e 88 134 8.0
e 88 149 42.0
e 88 91 29.0
e 88 217 27.0
e 88 298 24.0
e 88 19 25.0
e 88 68 40.0
e 88 129 8.0
e 88 250 9.0
e 88 58 34.0
e 88 239 11.0
e 88 161 36.0
e 88 211 37.0
e 88 169 10.0
e 88 89 24.0
e 88 304 3.0
e 88 297 24.0
e 88 76 19.0
e 88 225 17.0
e 88 83 41.0
e 88 157 12.0
e 88 288 30.0
e 88 113 45.0
e 88 49 36.0
e 88 299 48.0
e 88 143 25.0
e 88 156 18.0
e 88 4 7.0
e 88 200 1.0
e 88 287 5.0
e 88 72 2.0
e 88 104 32.0
e 88 90 13.0
e 88 305 27.0
e 88 138 31.0
e 88 212 21.0
e 88 253 46.0
e 88 8 18.0
e 88 73 38.0
e 88 5 14.0
e 88 224 48.0
e 88 292 1.0
e 88 251 15.0
e 88 95 2.0
e 88 301 6.0
e 88 74 44.0
e 88 70 6.0
e 88 2 27.0
e 88 258 47.0
e 88 259 42.0
e 88 17 40.0
e 88 87 42.0
e 88 93 31.0
e 88 94 11.0
e 88 252 14.0
e 88 196 46.0
e 88 214 7.0
e 88 150 43.0
e 88 50 30.0
e 88 302 26.0
e 88 223 15.0
e 88 306 9.0
e 89 245 1.0
e 90 102 1.0
e 90 168 1.0
e 90 265 4.0
e 91 24 2.0
e 92 212 1.0
e 92 237 2.0
e 92 54 1.0
e 92 130 2.0
e 92 243 1.0
e 93 130 1.0
e 93 214 1.0
e 94 82 2.0
e 95 19 1.0
e 95 70 1.0
e 95 137 1.0
e 95 288 2.0
e 96 9 1.0
e 97 20 1.0
e 97 315 1.0
e 97 224 1.0
e 98 308 2.0
e 99 171 1.0
e 99 119 1.0
e 100 112 1.0
e 100 305 1.0
e 101 167 29.0
e 101 272 3.0
e 102 71 2.0
e 102 180 2.0
e 103 220 1.0
e 103 101 1.0
e 103 288 2.0
e 103 237 2.0
e 104 267 1.0
e 105 138 1.0
e 105 56 2.0
e 106 315 1.0
e 107 202 2.0
e 108 157 1.0
e 109 195 5.0
e 109 119 2.0
e 109 282 2.0
e 109 315 1.0
e 110 77 1.0
e 111 251 1.0
e 112 245 2.0
e 113 93 2.0
e 114 90 2.0
e 115 197 3.0
e 116 34 1.0
e 117 207 1.0
e 117 210 2.0
e 118 151 1.0
e 119 277 1.0
e 120 310 1.0
e 120 229 18.0
e 121 170 37.0
e 121 19 3.0
e 121 60 1.0
e 121 275 3.0
e 121 75 2.0
e 121 88 2.0
e 121 106 5.0
e 121 43 4.0
e 121 36 1.0
e 121 266 1.0
e 122 210 1.0
e 122 75 1.0
e 122 98 2.0
e 122 166 2.0
e 122 41 1.0
e 123 271 1.0
e 123 256 2.0
e 123 2 1.0
e 123 95 2.0
e 124 83 3.0
e 124 197 2.0
e 125 226 1.0
e 125 40 1.0
e 125 245 2.0
e 125 138 1.0
e 126 4 1.0
e 127 203 1.0
e 128 279 2.0
e 128 209 7.0
e 128 230 2.0
e 128 150 1.0
e 129 282 1.0
e 130 42 1.0
e 130 223 19.0
e 131 34 41.0
e 131 144 19.0
e 131 87 10.0
e 131 210 5.0
e 131 28 3.0
e 131 42 35.0
e 131 276 34.0
e 131 86 25.0
e 131 39 4.0
e 131 94 25.0
e 131 78 44.0
e 131 226 2.0
e 131 149 47.0
e 131 256 49.0
e 131 281 5.0
e 131 240 1.0
e 131 2 23.0
e 131 308 4.0
e 131 127 30.0
e 131 22 31.0
e 131 280 36.0
e 131 71 8.0
e 131 172 28.0
e 131 159 21.0
e 131 246 40.0
e 131 313 10.0
e 131 174 40.0
e 131 167 12.0
e 131 309 20.0
e 131 126 28.0
e 131 95 21.0
e 131 29 28.0
e 131 291 7.0
e 131 311 37.0
e 131 74 34.0
e 131 99 20.0
e 131 61 19.0
e 131 67 42.0
e 131 68 23.0
e 131 257 34.0
e 131 316 4.0
e 131 143 44.0
e 131 147 20.0
e 131 170 26.0
e 131 245 18.0
e 131 185 21.0
e 131 79 23.0
e 131 297 15.0
e 131 214 26.0
e 131 119 16.0
e 131 250 2.0
e 131 62 13.0
e 131 305 2.0
e 131 113 30.0
e 131 231 18.0
e 131 17 30.0
e 131 59 41.0
e 131 254 13.0
e 131 69 6.0
e 131 96 16.0
e 131 259 28.0
e 131 205 29.0
e 131 284 7.0
e 131 160 38.0
e 131 312 36.0
e 131 155 17.0
e 131 3 46.0
e 131 63 46.0
e 131 211 6.0
e 131 21 11.0
e 131 135 10.0
e 131 220 16.0
e 131 108 7.0
e 131 317 12.0
e 131 285 46.0
e 131 239 40.0
e 131 265 1.0
e 132 264 2.0
e 132 317 1.0
e 132 166 2.0
e 132 15 2.0
e 132 12 1.0
e 133 52 1.0
e 133 143 2.0
e 133 210 2.0
e 134 149 1.0
e 134 106 3.0
e 135 141 2.0
e 136 291 1.0
e 137 192 1.0
e 138 65 1.0
e 139 64 1.0
e 139 116 1.0
e 139 55 2.0
e 139 200 1.0
e 139 148 1.0
e 140 305 2.0
e 140 157 4.0
e 140 78 1.0
e 141 192 2.0
e 141 216 1.0
e 141 41 2.0
e 141 209 1.0
e 142 116 2.0
e 142 275 2.0
e 142 90 1.0
e 143 264 1.0
e 143 152 1.0
e 143 40 1.0
e 144 133 1.0
e 145 217 3.0
e 146 277 1.0
e 146 155 2.0
e 147 82 1.0
e 147 155 1.0
e 147 223 8.0
e 148 5 45.0
e 148 242 2.0
e 148 182 2.0
e 148 35 4.0
e 148 206 15.0
e 149 293 2.0
e 150 162 1.0
e 151 203 1.0
e 152 65 1.0
e 153 261 20.0
e 153 160 48.0
e 153 67 14.0
e 153 247 10.0
e 153 100 18.0
e 153 288 35.0
e 153 223 20.0
e 153 129 43.0
e 153 221 47.0
e 153 191 17.0
e 153 176 11.0
e 153 161 2.0
e 153 99 19.0
e 153 310 20.0
e 153 230 9.0
e 153 166 4.0
e 153 279 43.0
e 153 27 26.0
e 153 267 14.0
e 153 38 46.0
e 153 309 39.0
e 153 86 3.0
e 153 212 24.0
e 153 127 2.0
e 153 228 24.0
e 153 266 31.0
e 153 37 41.0
e 153 83 26.0
e 153 307 33.0
e 153 162 18.0
e 153 57 18.0
e 153 313 3.0
e 153 17 18.0
e 153 133 18.0
e 153 149 35.0
e 153 110 46.0
e 153 80 39.0
e 153 263 1.0
e 153 178 49.0
e 153 245 4.0
e 153 190 27.0
e 153 317 32.0
e 153 227 12.0
e 153 96 18.0
e 153 195 35.0
e 153 275 34.0
e 153 200 6.0
e 153 167 39.0
e 153 18 20.0
e 153 125 33.0
e 153 62 22.0
e 153 216 15.0
e 153 154 7.0
e 153 150 42.0
e 153 39 4.0
e 153 174 23.0
e 153 168 9.0
e 153 236 35.0
e 153 293 5.0
e 153 185 20.0
e 153 106 1.0
e 153 32 24.0
e 153 141 29.0
e 153 250 49.0
e 153 13 49.0
e 153 116 34.0
e 153 126 12.0
e 153 163 37.0
e 153 74 27.0
e 153 131 38.0
e 153 76 42.0
e 153 105 41.0
e 153 192 28.0
e 153 311 22.0
e 153 34 14.0
e 153 287 17.0
e 153 90 47.0
e 153 8 20.0
e 153 282 10.0
e 154 103 1.0
e 155 109 1.0
e 156 298 1.0
e 157 286 11.0
e 157 43 6.0
e 157 6 6.0
e 157 86 7.0
e 157 258 9.0
e 157 222 10.0
e 157 247 9.0
e 157 206 36.0
e 157 169 2.0
e 157 114 11.0
e 157 31 8.0
e 157 32 6.0
e 157 90 1.0
e 157 294 7.0
e 158 62 1.0
e 159 99 1.0
e 160 18 1.0
e 161 56 1.0
e 161 189 1.0
e 161 121 4.0
e 162 25 1.0
e 162 104 1.0
e 162 261 1.0
e 163 280 1.0
e 163 295 1.0
e 164 27 2.0
e 164 43 1.0
e 165 36 6.0
e 165 90 2.0
e 165 228 4.0
e 166 23 1.0
e 167 261 2.0
e 167 262 37.0
e 167 281 38.0
e 167 175 40.0
e 167 16 31.0
e 167 79 9.0
e 167 62 28.0
e 167 243 16.0
e 167 201 29.0
e 167 12 16.0
e 167 318 20.0
e 167 25 45.0
e 167 52 48.0
e 167 148 17.0
e 167 228 6.0
e 167 26 33.0
e 167 195 21.0
e 167 110 24.0
e 167 85 24.0
e 167 105 14.0
e 167 135 37.0
e 167 86 13.0
e 167 214 31.0
e 167 246 33.0
e 167 132 49.0
e 167 307 14.0
e 167 13 43.0
e 167 287 31.0
e 167 263 26.0
e 167 102 41.0
e 167 129 27.0
e 167 211 35.0
e 167 224 27.0
e 167 216 47.0
e 167 197 37.0
e 167 238 28.0
e 167 117 37.0
e 167 116 9.0
e 167 212 38.0
e 167 24 31.0
e 167 315 14.0
e 167 133 25.0
e 167 50 12.0
e 167 244 18.0
e 167 9 19.0
e 167 293 28.0
e 167 11 41.0
e 167 229 35.0
e 167 27 7.0
e 167 202 33.0
e 167 203 33.0
e 167 130 5.0
e 167 188 1.0
e 167 98 21.0
e 167 280 48.0
e 167 19 5.0
e 167 191 35.0
e 167 204 3.0
e 167 58 45.0
e 167 151 16.0
e 167 231 26.0
e 167 71 38.0
e 167 260 1.0
e 167 158 10.0
e 167 251 41.0
e 167 155 20.0
e 167 314 11.0
e 167 82 2.0
e 167 247 47.0
e 167 80 24.0
e 167 118 10.0
e 167 69 37.0
e 167 75 37.0
e 167 134 36.0
e 167 210 11.0
e 167 103 5.0
e 167 53 28.0
e 168 155 1.0
e 169 314 1.0
e 170 173 19.0
e 170 240 29.0
e 170 90 46.0
e 170 8 15.0
e 170 153 7.0
e 170 249 36.0
e 170 297 18.0
e 170 71 41.0
e 170 190 11.0
e 170 32 14.0
e 170 223 47.0
e 170 28 36.0
e 170 318 7.0
e 170 70 37.0
e 170 124 18.0
e 170 231 15.0
e 170 281 22.0
e 170 86 29.0
e 170 79 12.0
e 170 268 19.0
e 170 221 13.0
e 170 50 10.0
e 170 254 44.0
e 170 24 49.0
e 170 84 17.0
e 170 83 49.0
e 170 291 17.0
e 170 305 20.0
e 170 19 27.0
e 170 89 7.0
e 170 232 29.0
e 170 216 25.0
e 170 25 7.0
e 170 165 44.0
e 170 61 6.0
e 170 75 48.0
e 170 292 19.0
e 170 233 18.0
e 170 168 35.0
e 170 222 44.0
e 170 141 32.0
e 170 14 48.0
e 170 269 20.0
e 170 184 3.0
e 170 214 33.0
e 170 133 49.0
e 170 227 38.0
e 170 3 26.0
e 170 132 45.0
e 170 46 40.0
e 170 274 40.0
e 170 159 30.0
e 170 273 48.0
e 170 234 44.0
e 170 56 26.0
e 170 66 39.0
e 170 26 26.0
e 170 76 33.0
e 170 106 19.0
e 170 143 24.0
e 170 67 49.0
e 170 15 16.0
e 170 272 19.0
e 170 47 46.0
e 170 275 6.0
e 170 155 33.0
e 170 125 14.0
e 170 126 18.0
e 170 191 34.0
e 170 36 8.0
e 170 295 16.0
e 170 176 1.0
e 170 225 5.0
e 170 122 15.0
e 170 196 28.0
e 171 308 1.0
e 171 106 1.0
e 172 304 39.0
e 172 95 41.0
e 172 254 49.0
e 172 65 15.0
e 172 199 2.0
e 172 214 2.0
e 172 159 3.0
e 172 296 27.0
e 172 239 39.0
e 172 19 34.0
e 172 196 49.0
e 172 29 39.0
e 172 238 27.0
e 172 119 49.0
e 172 129 39.0
e 172 70 24.0
e 172 240 29.0
e 172 133 47.0
e 172 168 5.0
e 172 22 18.0
e 172 27 25.0
e 172 224 23.0
e 172 179 7.0
e 172 25 13.0
e 172 308 32.0
e 172 47 34.0
e 172 271 12.0
e 172 77 2.0
e 172 40 13.0
e 172 188 3.0
e 172 78 8.0
e 172 255 34.0
e 172 192 7.0
e 172 277 23.0
e 172 182 33.0
e 172 128 32.0
e 172 186 12.0
e 172 292 15.0
e 172 147 38.0
e 172 156 49.0
e 172 41 44.0
e 172 32 37.0
e 172 140 16.0
e 172 297 19.0
e 172 33 44.0
e 172 51 1.0
e 172 34 21.0
e 172 4 30.0
e 172 293 42.0
e 172 117 7.0
e 172 269 21.0
e 172 253 32.0
e 172 127 39.0
e 172 61 14.0
e 172 205 28.0
e 172 212 49.0
e 172 217 1.0
e 172 164 27.0
e 172 175 31.0
e 172 132 9.0
e 172 176 44.0
e 172 191 37.0
e 172 120 38.0
e 172 171 26.0
e 172 291 22.0
e 172 301 2.0
e 172 266 22.0
e 172 303 24.0
e 172 122 47.0
e 172 121 23.0
e 172 289 8.0
e 172 37 4.0
e 172 189 36.0
e 172 50 40.0
e 172 215 4.0
e 172 232 9.0
e 172 251 18.0
e 172 39 14.0
e 172 200 20.0
e 173 89 3.0
e 173 10 1.0
e 173 82 1.0
e 173 311 1.0
e 173 196 1.0
e 174 101 2.0
e 175 17 1.0
e 176 191 1.0
e 177 231 2.0
e 178 167 41.0
e 178 225 7.0
e 178 273 36.0
e 178 85 39.0
e 178 250 21.0
e 178 274 31.0
e 178 117 47.0
e 178 156 6.0
e 178 292 43.0
e 178 70 1.0
e 178 266 18.0
e 178 209 49.0
e 178 106 25.0
e 178 271 6.0
e 178 90 42.0
e 178 45 47.0
e 178 116 48.0
e 178 293 1.0
e 178 75 17.0
e 178 280 25.0
e 178 214 34.0
e 178 37 29.0
e 178 12 29.0
e 178 69 7.0
e 178 138 5.0
e 178 264 44.0
e 178 221 32.0
e 178 49 24.0
e 178 72 45.0
e 178 77 16.0
e 178 241 13.0
e 178 307 19.0
e 178 124 32.0
e 178 186 6.0
e 178 281 44.0
e 178 301 49.0
e 178 237 8.0
e 178 31 18.0
e 178 126 19.0
e 178 74 22.0
e 178 218 30.0
e 178 215 1.0
e 178 78 11.0
e 178 32 9.0
e 178 216 41.0
e 178 285 43.0
e 178 288 23.0
e 178 73 43.0
e 178 304 48.0
e 178 76 9.0
e 178 95 8.0
e 178 258 29.0
e 178 272 10.0
e 178 191 23.0
e 178 302 44.0
e 178 159 2.0
e 178 252 26.0
e 178 251 47.0
e 178 298 25.0
e 178 105 30.0
e 178 289 19.0
e 178 253 49.0
e 178 212 35.0
e 178 154 1.0
e 178 36 43.0
e 178 155 37.0
e 178 275 12.0
e 178 19 10.0
e 178 107 15.0
e 178 121 30.0
e 178 51 8.0
e 178 219 19.0
e 178 157 26.0
e 178 308 17.0
e 178 309 44.0
e 178 162 16.0
e 179 100 1.0
e 179 186 1.0
e 180 150 1.0
e 181 219 1.0
e 181 145 1.0
e 182 231 1.0
e 183 66 8.0
e 184 146 1.0
e 184 171 1.0
e 185 261 1.0
e 186 197 1.0
e 187 106 1.0
e 187 239 1.0
e 187 102 1.0
e 188 239 1.0
e 189 273 1.0
e 189 235 1.0
e 190 94 1.0
e 191 36 4.0
e 192 84 2.0
e 193 104 1.0
e 194 83 1.0
e 194 238 2.0
e 194 234 8.0
e 195 241 46.0
e 195 130 1.0
e 195 188 5.0
e 195 306 5.0
e 195 97 1.0
e 195 293 5.0
e 195 39 2.0
e 196 199 1.0
e 197 36 2.0
e 198 160 1.0
e 198 272 1.0
e 199 180 2.0
e 200 135 1.0
e 201 270 30.0
e 201 310 1.0
e 201 244 1.0
e 201 198 3.0
e 201 206 5.0
e 202 149 1.0
e 202 7 2.0
e 202 261 1.0
e 203 51 1.0
e 204 67 1.0
e 205 290 5.0
e 205 271 3.0
e 205 281 1.0
e 205 148 2.0
e 205 181 6.0
e 205 134 2.0
e 205 243 3.0
e 205 211 2.0
e 206 128 12.0
e 206 190 42.0
e 206 14 19.0
e 206 12 42.0
e 206 234 18.0
e 206 288 10.0
e 206 78 9.0
e 206 229 8.0
e 206 310 10.0
e 206 263 44.0
e 206 151 46.0
e 206 257 48.0
e 206 209 18.0
e 206 266 47.0
e 206 216 19.0
e 206 210 47.0
e 206 260 27.0
e 206 5 4.0
e 206 184 4.0
e 206 202 25.0
e 206 269 48.0
e 206 230 8.0
e 206 267 26.0
e 206 215 29.0
e 206 102 12.0
e 206 309 18.0
e 206 214 5.0
e 206 124 2.0
e 206 58 1.0
e 206 45 17.0
e 206 306 7.0
e 206 31 45.0
e 206 150 6.0
e 206 129 32.0
e 206 36 11.0
e 206 180 3.0
e 206 238 9.0
e 206 51 17.0
e 206 22 18.0
e 206 318 35.0
e 206 205 7.0
e 206 254 18.0
e 206 70 39.0
e 206 90 36.0
e 206 166 6.0
e 206 250 48.0
e 206 231 43.0
e 206 287 31.0
e 206 220 17.0
e 206 271 38.0
e 206 75 46.0
e 206 307 38.0
e 206 225 31.0
e 206 136 16.0
e 206 274 49.0
e 206 177 38.0
e 206 302 2.0
e 206 126 22.0
e 206 284 46.0
e 206 285 8.0
e 206 227 31.0
e 206 50 31.0
e 206 98 33.0
e 206 143 46.0
e 206 308 44.0
e 206 173 22.0
e 206 255 9.0
e 206 178 30.0
e 206 223 15.0
e 206 23 46.0
e 206 137 49.0
e 206 110 36.0
e 206 232 33.0
e 206 111 6.0
e 207 178 20.0
e 208 316 1.0
e 209 232 9.0
e 209 163 7.0
e 209 236 9.0
e 209 40 9.0
e 209 41 8.0
e 209 246 3.0
e 209 109 1.0
e 209 302 5.0
e 209 94 4.0
e 209 283 9.0
e 209 131 30.0
e 209 233 6.0
e 209 110 9.0
e 209 188 1.0
e 209 62 3.0
e 209 170 24.0
e 210 185 2.0
e 211 114 1.0
e 212 169 3.0
e 213 295 1.0
e 213 299 2.0
e 214 101 1.0
e 215 207 1.0
e 216 160 1.0
e 217 106 2.0
e 218 23 1.0
e 219 151 1.0
e 219 71 2.0
e 220 4 1.0
e 221 210 2.0
e 222 211 2.0
e 223 257 31.0
e 223 185 24.0
e 223 318 30.0
e 223 48 14.0
e 223 135 35.0
e 223 282 49.0
e 223 5 48.0
e 223 279 7.0
e 223 41 29.0
e 223 110 22.0
e 223 255 47.0
e 223 114 40.0
e 223 232 11.0
e 223 75 8.0
e 223 11 13.0
e 223 29 9.0
e 223 8 1.0
e 223 278 2.0
e 223 73 45.0
e 223 196 26.0
e 223 12 42.0
e 223 80 7.0
e 223 197 28.0
e 223 284 12.0
e 223 156 30.0
e 223 49 22.0
e 223 188 9.0
e 223 198 17.0
e 223 138 36.0
e 223 247 30.0
e 223 213 45.0
e 223 293 22.0
e 223 45 33.0
e 223 217 1.0
e 223 53 24.0
e 223 4 2.0
e 223 283 8.0
e 223 248 8.0
e 223 267 11.0
e 223 272 21.0
e 223 309 17.0
e 223 224 49.0
e 223 128 2.0
e 223 129 29.0
e 223 66 44.0
e 223 280 48.0
e 223 139 15.0
e 223 122 45.0
e 223 20 45.0
e 223 150 34.0
e 223 238 17.0
e 223 99 41.0
e 223 7 22.0
e 223 140 21.0
e 223 13 42.0
e 223 123 2.0
e 223 72 33.0
e 223 21 36.0
e 223 17 16.0
e 223 124 17.0
e 223 305 13.0
e 223 119 8.0
e 223 42 30.0
e 223 14 3.0
e 223 118 24.0
e 223 228 9.0
e 223 186 29.0
e 223 175 3.0
e 223 231 34.0
e 223 136 47.0
e 223 10 27.0
e 223 87 47.0
e 223 68 39.0
e 224 199 1.0
e 225 46 1.0
e 226 94 1.0
e 227 177 1.0
e 228 206 44.0
e 228 242 2.0
e 228 291 9.0
e 228 42 12.0
e 228 160 11.0
e 228 58 6.0
e 228 305 8.0
e 228 151 5.0
e 228 121 7.0
e 228 292 16.0
e 228 38 10.0
e 228 299 7.0
e 229 139 46.0
e 229 147 42.0
e 229 260 14.0
e 229 289 49.0
e 229 299 16.0
e 229 130 37.0
e 229 267 10.0
e 229 298 30.0
e 229 207 9.0
e 229 243 32.0
e 229 53 38.0
e 229 24 17.0
e 229 29 4.0
e 229 266 18.0
e 229 160 36.0
e 229 225 38.0
e 229 86 14.0
e 229 153 18.0
e 229 75 46.0
e 229 30 39.0
e 229 49 18.0
e 229 124 25.0
e 229 116 41.0
e 229 294 34.0
e 229 265 15.0
e 229 77 7.0
e 229 60 10.0
e 229 46 7.0
e 229 251 26.0
e 229 51 6.0
e 229 210 25.0
e 229 40 33.0
e 229 17 34.0
e 229 18 42.0
e 229 268 4.0
e 229 310 21.0
e 229 6 20.0
e 229 285 41.0
e 229 261 38.0
e 229 284 18.0
e 229 61 23.0
e 229 106 48.0
e 229 136 40.0
e 229 198 48.0
e 229 256 8.0
e 229 137 10.0
e 229 131 34.0
e 229 306 5.0
e 229 161 4.0
e 229 42 44.0
e 229 295 19.0
e 229 138 22.0
e 229 205 2.0
e 229 150 49.0
e 229 83 8.0
e 229 34 45.0
e 229 50 13.0
e 229 300 7.0
e 229 62 4.0
e 229 110 17.0
e 229 163 4.0
e 229 94 43.0
e 229 269 13.0
e 229 68 41.0
e 229 28 6.0
e 229 192 15.0
e 229 25 2.0
e 229 54 49.0
e 229 185 22.0
e 229 214 33.0
e 229 270 7.0
e 229 290 20.0
e 229 31 32.0
e 229 14 15.0
e 230 82 1.0
e 230 225 1.0
e 231 160 1.0
e 232 292 29.0
e 233 197 2.0
e 233 106 1.0
e 233 37 2.0
e 234 301 38.0
e 234 198 24.0
e 234 200 46.0
e 234 215 20.0
e 234 124 35.0
e 234 297 24.0
e 234 298 13.0
e 234 227 43.0
e 234 27 47.0
e 234 207 11.0
e 234 95 24.0
e 234 131 39.0
e 234 223 18.0
e 234 193 38.0
e 234 0 40.0
e 234 272 45.0
e 234 309 31.0
e 234 157 15.0
e 234 181 28.0
e 234 294 18.0
e 234 59 49.0
e 234 17 20.0
e 234 50 49.0
e 234 115 46.0
e 234 313 48.0
e 234 12 41.0
e 234 233 49.0
e 234 91 5.0
e 234 81 10.0
e 234 172 4.0
e 234 54 13.0
e 234 46 38.0
e 234 186 9.0
e 234 271 39.0
e 234 33 49.0
e 234 122 30.0
e 234 275 21.0
e 234 15 9.0
e 234 89 39.0
e 234 273 47.0
e 234 24 41.0
e 234 13 1.0
e 234 61 28.0
e 234 208 40.0
e 234 274 40.0
e 234 106 31.0
e 234 96 29.0
e 234 16 49.0
e 234 190 17.0
e 234 113 26.0
e 234 18 45.0
e 234 255 16.0
e 234 110 47.0
e 234 285 27.0
e 234 28 45.0
e 234 290 31.0
e 234 253 34.0
e 234 281 42.0
e 234 1 44.0
e 234 209 17.0
e 234 51 8.0
e 234 84 46.0
e 234 277 22.0
e 234 152 29.0
e 234 292 14.0
e 234 135 35.0
e 234 246 48.0
e 234 82 19.0
e 234 52 30.0
e 234 276 39.0
e 234 178 35.0
e 234 286 12.0
e 234 6 8.0
e 234 108 39.0
e 234 97 16.0
e 234 117 26.0
e 234 136 14.0
e 235 229 14.0
e 235 73 1.0
e 235 130 2.0
e 235 111 2.0
e 236 130 2.0
e 236 131 2.0
e 237 57 1.0
e 238 244 1.0
e 239 23 1.0
e 240 318 2.0
e 241 157 34.0
e 241 92 30.0
e 241 209 29.0
e 241 144 21.0
e 241 300 47.0
e 241 133 45.0
e 241 73 27.0
e 241 260 32.0
e 241 132 21.0
e 241 292 26.0
e 241 317 45.0
e 241 37 33.0
e 241 142 2.0
e 241 101 42.0
e 241 223 8.0
e 241 267 37.0
e 241 94 37.0
e 241 64 36.0
e 241 145 25.0
e 241 41 21.0
e 241 24 31.0
e 241 210 1.0
e 241 15 25.0
e 241 282 32.0
e 241 114 31.0
e 241 20 36.0
e 241 189 25.0
e 241 261 37.0
e 241 102 5.0
e 241 318 32.0
e 241 40 32.0
e 241 45 33.0
e 241 126 41.0
e 241 234 18.0
e 241 52 10.0
e 241 31 4.0
e 241 279 6.0
e 241 127 26.0
e 241 271 37.0
e 241 315 33.0
e 241 68 26.0
e 241 108 4.0
e 241 293 43.0
e 241 171 39.0
e 241 72 34.0
e 241 58 19.0
e 241 8 46.0
e 241 295 7.0
e 241 273 15.0
e 241 270 2.0
e 241 243 26.0
e 241 235 47.0
e 241 84 43.0
e 241 139 24.0
e 241 211 22.0
e 241 116 29.0
e 241 309 1.0
e 241 149 26.0
e 241 99 26.0
e 241 275 9.0
e 241 103 32.0
e 241 184 18.0
e 241 21 9.0
e 241 297 30.0
e 241 233 14.0
e 241 165 46.0
e 241 9 43.0
e 241 59 29.0
e 241 272 4.0
e 241 89 11.0
e 241 35 31.0
e 241 152 18.0
e 241 32 2.0
e 241 34 27.0
e 241 49 20.0
e 241 274 7.0
e 241 190 6.0
e 241 131 30.0
e 242 72 2.0
e 242 11 1.0
e 243 288 1.0
e 244 110 1.0
e 245 93 1.0
e 246 217 1.0
e 247 64 1.0
e 248 276 1.0
e 249 267 18.0
e 249 158 3.0
e 249 64 43.0
e 249 130 6.0
e 249 301 34.0
e 249 278 4.0
e 249 18 22.0
e 249 193 43.0
e 249 101 36.0
e 249 247 47.0
e 249 169 34.0
e 249 199 33.0
e 249 65 48.0
e 249 194 34.0
e 249 157 32.0
e 249 121 5.0
e 249 308 32.0
e 249 237 43.0
e 249 78 20.0
e 249 276 19.0
e 249 236 45.0
e 249 288 1.0
e 249 171 38.0
e 249 143 43.0
e 249 23 32.0
e 249 269 36.0
e 249 222 11.0
e 249 107 20.0
e 249 103 32.0
e 249 45 36.0
e 249 314 27.0
e 249 274 30.0
e 249 217 31.0
e 249 168 24.0
e 249 153 32.0
e 249 74 41.0
e 249 150 45.0
e 249 218 6.0
e 249 118 4.0
e 249 68 48.0
e 249 50 14.0
e 249 69 21.0
e 249 138 13.0
e 249 76 47.0
e 249 15 48.0
e 249 219 21.0
e 249 39 20.0
e 249 195 47.0
e 249 81 32.0
e 249 128 7.0
e 249 16 14.0
e 249 302 42.0
e 249 281 25.0
e 249 144 49.0
e 249 279 28.0
e 249 214 6.0
e 249 40 39.0
e 249 134 19.0
e 249 182 44.0
e 249 196 38.0
e 249 197 41.0
e 249 186 47.0
e 249 181 4.0
e 249 77 45.0
e 249 227 5.0
e 249 17 30.0
e 249 59 23.0
e 249 66 7.0
e 249 256 18.0
e 249 213 13.0
e 249 200 28.0
e 249 154 48.0
e 249 165 45.0
e 249 234 13.0
e 249 1 41.0
e 249 89 41.0
e 249 251 26.0
e 249 85 5.0
e 250 237 2.0
e 251 256 2.0
e 252 57 1.0
e 252 290 6.0
e 253 196 2.0
e 254 228 1.0
e 255 270 19.0
e 256 221 1.0
e 257 17 1.0
e 257 158 2.0
e 258 162 1.0
e 259 120 1.0
e 260 164 1.0
e 261 243 1.0
e 262 237 2.0
e 263 191 1.0
e 264 270 48.0
e 264 58 1.0
e 264 253 3.0
e 265 306 46.0
e 265 247 28.0
e 265 301 23.0
e 265 1 27.0
e 265 142 39.0
e 265 97 41.0
e 265 91 32.0
e 265 132 45.0
e 265 29 28.0
e 265 23 44.0
e 265 30 32.0
e 265 302 14.0
e 265 108 31.0
e 265 177 37.0
e 265 152 8.0
e 265 106 33.0
e 265 303 47.0
e 265 31 8.0
e 265 78 33.0
e 265 316 4.0
e 265 226 36.0
e 265 186 47.0
e 265 123 23.0
e 265 237 36.0
e 265 6 38.0
e 265 58 2.0
e 265 315 10.0
e 265 196 9.0
e 265 219 9.0
e 265 109 9.0
e 265 308 45.0
e 265 286 21.0
e 265 194 43.0
e 265 73 41.0
e 265 42 1.0
e 265 43 23.0
e 265 260 16.0
e 265 136 3.0
e 265 77 30.0
e 265 233 47.0
e 265 104 5.0
e 265 281 10.0
e 265 178 47.0
e 265 110 28.0
e 265 212 36.0
e 265 92 22.0
e 265 155 2.0
e 265 283 1.0
e 265 33 29.0
e 265 113 27.0
e 265 175 49.0
e 265 243 4.0
e 265 166 16.0
e 265 264 27.0
e 265 311 30.0
e 265 35 4.0
e 265 176 48.0
e 265 93 38.0
e 265 32 48.0
e 265 105 34.0
e 265 157 41.0
e 265 120 10.0
e 265 68 47.0
e 265 254 12.0
e 265 242 17.0
e 265 34 17.0
e 265 126 26.0
e 265 255 28.0
e 265 56 35.0
e 265 192 29.0
e 265 279 45.0
e 265 4 37.0
e 265 103 23.0
e 265 275 43.0
e 265 282 30.0
e 265 53 8.0
e 265 232 4.0
e 265 137 9.0
e 266 75 2.0
e 267 180 1.0
e 268 27 2.0
e 269 45 5.0
e 269 114 5.0
e 269 72 2.0
e 269 68 12.0
e 269 205 9.0
e 269 227 4.0
e 269 22 7.0
e 269 264 12.0
e 269 130 3.0
e 269 226 2.0
e 269 181 6.0
e 269 70 1.0
e 269 285 10.0
e 269 17 1.0
e 270 68 8.0
e 270 317 42.0
e 270 247 49.0
e 270 182 2.0
e 270 124 37.0
e 270 138 28.0
e 270 196 5.0
e 270 115 16.0
e 270 230 15.0
e 270 218 18.0
e 270 98 26.0
e 270 318 12.0
e 270 178 36.0
e 270 219 40.0
e 270 36 26.0
e 270 299 13.0
e 270 44 15.0
e 270 172 10.0
e 270 64 38.0
e 270 9 24.0
e 270 195 12.0
e 270 236 33.0
e 270 76 32.0
e 270 51 35.0
e 270 82 39.0
e 270 50 8.0
e 270 276 49.0
e 270 75 42.0
e 270 174 36.0
e 270 79 36.0
e 270 122 3.0
e 270 106 15.0
e 270 234 38.0
e 270 265 19.0
e 270 175 12.0
e 270 183 30.0
e 270 160 34.0
e 270 125 22.0
e 270 179 30.0
e 270 319 47.0
e 270 80 10.0
e 270 143 8.0
e 270 48 14.0
e 270 281 19.0
e 270 10 9.0
e 270 191 15.0
e 270 45 22.0
e 270 77 27.0
e 270 144 34.0
e 270 94 1.0
e 270 92 28.0
e 270 228 41.0
e 270 190 18.0
e 270 231 12.0
e 270 176 1.0
e 270 32 38.0
e 270 131 1.0
e 270 33 1.0
e 270 15 16.0
e 270 88 23.0
e 270 217 45.0
e 270 266 2.0
e 270 232 3.0
e 270 40 36.0
e 270 297 30.0
e 270 42 19.0
e 270 253 38.0
e 270 222 42.0
e 270 34 3.0
e 270 7 16.0
e 270 26 47.0
e 270 278 36.0
e 270 65 18.0
e 271 85 3.0
e 272 56 1.0
e 273 144 1.0
e 274 3 1.0
e 275 37 1.0
e 276 189 1.0
e 277 85 1.0
e 278 39 1.0
e 279 204 1.0
e 280 76 1.0
e 281 252 1.0
e 282 215 2.0
e 283 77 1.0
e 284 65 1.0
e 285 67 1.0
e 286 124 1.0
e 287 25 2.0
e 288 8 1.0
e 289 125 1.0
e 290 34 7.0
e 290 282 15.0
e 290 184 8.0
e 290 13 25.0
e 290 103 6.0
e 290 37 25.0
e 290 131 25.0
e 290 223 20.0
e 290 155 27.0
e 290 158 32.0
e 290 55 36.0
e 290 310 14.0
e 290 78 21.0
e 290 248 12.0
e 290 115 13.0
e 290 261 41.0
e 290 185 41.0
e 290 60 27.0
e 290 80 41.0
e 290 142 9.0
e 290 21 38.0
e 290 199 24.0
e 290 271 17.0
e 290 3 16.0
e 290 202 25.0
e 290 108 21.0
e 290 178 24.0
e 290 172 26.0
e 290 186 35.0
e 290 171 26.0
e 290 32 44.0
e 290 65 46.0
e 290 135 39.0
e 290 272 7.0
e 290 204 49.0
e 290 251 29.0
e 290 228 3.0
e 290 166 16.0
e 290 259 46.0
e 290 61 48.0
e 290 4 23.0
e 290 132 20.0
e 290 297 40.0
e 290 315 11.0
e 290 94 25.0
e 290 66 1.0
e 290 157 22.0
e 290 180 18.0
e 290 242 20.0
e 290 130 4.0
e 290 179 12.0
e 290 18 29.0
e 290 295 42.0
e 290 291 10.0
e 290 29 15.0
e 290 152 1.0
e 290 213 42.0
e 290 187 12.0
e 290 101 37.0
e 290 114 3.0
e 290 140 18.0
e 290 188 38.0
e 290 183 39.0
e 290 56 37.0
e 290 232 18.0
e 290 301 26.0
e 290 311 3.0
e 290 235 18.0
e 290 63 24.0
e 290 159 18.0
e 290 216 41.0
e 290 127 24.0
e 290 35 15.0
e 290 144 41.0
e 290 258 38.0
e 290 292 41.0
e 291 263 2.0
e 292 242 19.0
e 292 285 46.0
e 292 235 43.0
e 292 275 11.0
e 292 297 32.0
e 292 316 38.0
e 292 265 48.0
e 292 116 47.0
e 292 66 6.0
e 292 110 32.0
e 292 92 25.0
e 292 111 40.0
e 292 315 42.0
e 292 291 13.0
e 292 293 1.0
e 292 251 6.0
e 292 39 5.0
e 292 317 17.0
e 292 267 25.0
e 292 216 8.0
e 292 147 4.0
e 292 301 29.0
e 292 174 18.0
e 292 104 19.0
e 292 281 11.0
e 292 118 7.0
e 292 217 28.0
e 292 155 35.0
e 292 109 23.0
e 292 146 34.0
e 292 160 31.0
e 292 0 43.0
e 292 103 2.0
e 292 1 11.0
e 292 195 37.0
e 292 274 15.0
e 292 149 1.0
e 292 233 26.0
e 292 236 16.0
e 292 272 41.0
e 292 37 44.0
e 292 282 31.0
e 292 175 2.0
e 292 12 38.0
e 292 215 1.0
e 292 41 24.0
e 292 148 6.0
e 292 3 34.0
e 292 219 29.0
e 292 96 21.0
e 292 257 3.0
e 292 156 17.0
e 292 194 13.0
e 292 237 24.0
e 292 197 41.0
e 292 176 4.0
e 292 18 37.0
e 292 268 17.0
e 292 67 11.0
e 292 276 45.0
e 292 286 25.0
e 292 81 20.0
e 292 90 27.0
e 292 54 42.0
e 292 14 16.0
e 292 264 11.0
e 292 11 24.0
e 292 44 10.0
e 292 128 25.0
e 292 294 13.0
e 293 127 2.0
e 294 84 2.0
e 295 49 2.0
e 296 219 1.0
e 297 40 1.0
e 298 107 1.0
e 299 297 1.0
e 300 259 1.0
e 301 112 2.0
e 302 30 2.0
e 303 102 2.0
e 304 317 1.0
e 304 199 1.0
e 304 74 1.0
e 304 128 1.0
e 304 291 2.0
e 305 298 1.0
e 306 159 1.0
e 306 7 1.0
e 306 196 5.0
e 306 21 3.0
e 307 60 1.0
e 308 58 2.0
e 309 11 1.0
e 310 168 1.0
e 311 127 1.0
e 312 279 1.0
e 313 63 1.0
e 314 75 1.0
e 315 37 1.0
e 316 279 1.0
e 317 145 1.0
e 318 30 2.0
e 319 247 1.0
e 319 131 6.0
